 ! --------------------------------------------------- CP Optimizer 22.1.1.0 --
 ! Satisfiability problem - 47000 variables, 604904 constraints
 ! Presolve      : 28800 extractables eliminated
 ! TimeLimit            = 3600
 ! Workers              = 1
 ! Initial process time : 5.25s (5.23s extraction + 0.02s propagation)
 !  . Log search space  : 482071.6 (before), 482071.6 (after)
 !  . Memory usage      : 364.5 MB (before), 364.5 MB (after)
 ! Using sequential search.
 ! ----------------------------------------------------------------------------
 !               Branches  Non-fixed            Branch decision
                     1220      35124        F          presenceOf(copy_trips:33_10)
                     2163      46327        F          presenceOf(copy_trips:39_0)
                     3000      34284                   presenceOf(copy_lane_parking:5_4)
                     4000      16447                   presenceOf(copy_lane_parking:0_300)
                     5000      40254            256  = endOf(start_parking:36)
                     6000      27752                  !presenceOf(copy_bus_parking:9_3)
                     7000      27876        F         !presenceOf(copy_bus_parking:19_359)
                     8000      29787        F          presenceOf(copy_trips:19_8)
                     9000      32893                  !presenceOf(copy_bus_parking:22_23)
                    10000      29802                  !presenceOf(copy_bus_parking:25_353)
                    11000      29787        F          presenceOf(copy_bus_parking:34_26)
                    12000      32511        F          presenceOf(copy_trips:2_0)
                    13000      42771                   presenceOf(copy_lane_parking:4_216)
                    14000      29793        F          presenceOf(copy_trips:13_354)
                    15000      29790        F          presenceOf(copy_trips:33_354)
                    16000      29790        F          presenceOf(copy_trips:1_354)
                    17000      29793                  !presenceOf(copy_trips:33_355)
                    18000      28324                  !presenceOf(copy_bus_parking:13_0)
                    19000      28191                   presenceOf(copy_bus_parking:28_99)
                    20000      20837                  !presenceOf(copy_bus_parking:39_48)
 ! Time = 32.73s, Average fail depth = 394, Memory usage = 1.2 GB
 !               Branches  Non-fixed            Branch decision
                    21000      16443                   presenceOf(copy_trips:30_243)
                    22000      16351                  !presenceOf(copy_bus_parking:26_259)
                    23000      16450        F          presenceOf(copy_trips:8_354)
                    24000      30092                   presenceOf(copy_trips:16_3)
                    25000      30272                  !presenceOf(copy_bus_parking:24_352)
                    26000      29781        F          presenceOf(copy_bus_parking:30_359)
                    27000      29781                  !presenceOf(copy_bus_parking:34_359)
                    28000      29781                  !presenceOf(copy_trips:31_354)
                    29000      29799                  !presenceOf(copy_bus_parking:4_17)
                    30000      32339                   presenceOf(copy_lane_parking:3_17)
                    31000      19621        F          presenceOf(copy_bus_parking:0_35)
                    32000      19621        F          presenceOf(copy_trips:33_23)
                    33000      32771                   presenceOf(copy_trips:25_9)
                    34000      20097                  !presenceOf(copy_bus_parking:10_35)
                    35000      20100                   presenceOf(copy_lane_parking:6_144)
                    36000      28331                   presenceOf(copy_lane_parking:0_31)
                    37000      29802                   presenceOf(copy_lane_parking:7_128)
                    38000      28250        F          presenceOf(copy_bus_parking:30_7)
                    39000      28250        F          presenceOf(copy_trips:8_354)
                    40000      29799        F          presenceOf(copy_trips:8_354)
 ! Time = 60.17s, Average fail depth = 441, Memory usage = 1.2 GB
 !               Branches  Non-fixed            Branch decision
                    41000      29799        F          presenceOf(copy_trips:33_354)
                    42000      29870        F         !presenceOf(copy_trips:10_0)
                    43000      16351                   presenceOf(copy_trips:11_240)
                    44000      16351                  !presenceOf(copy_trips:36_0)
                    45000      44677                   presenceOf(copy_lane_parking:0_42)
                    46000      29793                  !presenceOf(copy_bus_parking:7_353)
                    47000      29858                  !presenceOf(copy_trips:29_359)
                    48000      29855                  !presenceOf(copy_trips:7_359)
                    49000      29855                  !presenceOf(copy_trips:1_359)
                    50000      29861                  !presenceOf(copy_trips:16_359)
                    51000      29861                  !presenceOf(copy_trips:6_359)
                    52000      29861                  !presenceOf(copy_trips:12_359)
                    53000      29864                  !presenceOf(copy_trips:36_359)
                    54000      29861                  !presenceOf(copy_trips:39_359)
                    55000      29861                  !presenceOf(copy_trips:12_359)
                    56000      29867        F          presenceOf(copy_trips:19_353)
                    57000      29864                  !presenceOf(copy_trips:34_359)
                    58000      29867                  !presenceOf(copy_trips:4_359)
                    59000      29858                  !presenceOf(copy_trips:0_359)
                    60000      29861        F          presenceOf(copy_bus_parking:9_10)
 ! Time = 74.48s, Average fail depth = 442, Memory usage = 1.2 GB
 !               Branches  Non-fixed            Branch decision
                    61000      32640                   presenceOf(copy_lane_parking:1_321)
                    62000      32627        F          presenceOf(copy_trips:27_27)
                    63000      29790                   presenceOf(copy_trips:37_353)
                    64000      29784        F          presenceOf(copy_trips:12_359)
                    65000      29781                   presenceOf(copy_trips:21_359)
                    66000      29781                   presenceOf(copy_lane_parking:3_205)
                    67000      20254                   presenceOf(copy_lane_parking:0_253)
                    68000      19545                   presenceOf(copy_lane_parking:3_247)
                    69000      29982                  !presenceOf(copy_bus_parking:37_354)
                    70000      29976        F          presenceOf(copy_trips:1_359)
                    71000      29982        F          presenceOf(copy_trips:25_359)
                    72000      29976                  !presenceOf(copy_bus_parking:10_354)
                    73000      29982        F          presenceOf(copy_trips:36_352)
                    74000      29970                  !presenceOf(copy_bus_parking:38_354)
                    75000      29976        F          presenceOf(copy_trips:37_359)
                    76000      29988        F          presenceOf(copy_trips:0_359)
                    77000      29982        F          presenceOf(copy_trips:24_359)
                    78000      29970                  !presenceOf(copy_bus_parking:9_354)
                    79000      29982        F          presenceOf(copy_trips:4_352)
                    80000      29976        F          presenceOf(copy_trips:38_359)
 ! Time = 92.80s, Average fail depth = 454, Memory usage = 1.2 GB
 !               Branches  Non-fixed            Branch decision
                    81000      29976                  !presenceOf(copy_bus_parking:25_354)
                    82000      30142                   presenceOf(copy_lane_parking:1_118)
                    83000      20967                   presenceOf(copy_lane_parking:5_270)
                    84000      29796                   presenceOf(copy_lane_parking:5_309)
                    85000      29772                   presenceOf(copy_lane_parking:6_213)
                    86000      29790                   presenceOf(copy_lane_parking:6_207)
                    87000      20334                   presenceOf(copy_lane_parking:0_132)
                    88000      39959                   presenceOf(copy_lane_parking:5_17)
                    89000      29790                   presenceOf(copy_lane_parking:0_340)
                    90000      32554                   presenceOf(copy_lane_parking:0_62)
                    91000      29891                   presenceOf(copy_lane_parking:1_103)
                    92000      20787        F          presenceOf(copy_bus_parking:10_48)
                    93000      20787        F          presenceOf(copy_bus_parking:2_48)
                    94000      20787        F          presenceOf(copy_bus_parking:19_48)
                    95000      20787            256 != endOf(start_parking:34)
                    96000      27478                  !presenceOf(copy_bus_parking:3_0)
                    97000      27478                  !presenceOf(copy_trips:1_38)
                    98000      33170                  !presenceOf(copy_bus_parking:31_24)
                    99000      33170        F          presenceOf(copy_trips:14_38)
                     100k      33170        F          presenceOf(copy_trips:16_38)
 ! Time = 123.61s, Average fail depth = 458, Memory usage = 1.2 GB
 !               Branches  Non-fixed            Branch decision
                     101k      29306                   presenceOf(copy_lane_parking:4_229)
                     102k      16450                  !presenceOf(copy_trips:38_3)
                     103k      24656                   presenceOf(copy_trips:13_55)
                     104k      20837                  !presenceOf(copy_trips:29_109)
                     105k      31340        F          presenceOf(copy_trips:34_27)
                     106k      32721                  !presenceOf(copy_trips:35_24)
                     107k      28209        F          presenceOf(copy_bus_parking:1_1)
                     108k      28075                  !presenceOf(copy_trips:27_34)
                     109k      31263                   presenceOf(copy_lane_parking:3_150)
                     110k      32060                  !presenceOf(copy_bus_parking:4_33)
                     111k      31352                   presenceOf(copy_lane_parking:3_140)
                     112k      33458                  !presenceOf(copy_bus_parking:10_40)
                     113k      32427        F          presenceOf(copy_trips:14_26)
                     114k      32320        F          presenceOf(copy_bus_parking:1_0)
                     115k      41903        F          presenceOf(copy_trips:3_86)
                     116k      41903        F         !presenceOf(copy_bus_parking:4_7)
                     117k      41903        F         !presenceOf(copy_bus_parking:4_7)
                     118k      29784        F         !presenceOf(copy_bus_parking:18_359)
                     119k      29787                   presenceOf(copy_lane_parking:4_184)
                     120k      29873        F          presenceOf(copy_bus_parking:20_354)
 ! Time = 158.55s, Average fail depth = 450, Memory usage = 1.2 GB
 !               Branches  Non-fixed            Branch decision
                     121k      29879        F          presenceOf(copy_bus_parking:19_59)
                     122k      32939                  !presenceOf(copy_bus_parking:9_26)
                     123k      32942                  !presenceOf(copy_bus_parking:25_26)
                     124k      32942        F          presenceOf(copy_bus_parking:19_59)
                     125k      32939                  !presenceOf(copy_bus_parking:12_26)
                     126k      32316                  !presenceOf(copy_bus_parking:22_26)
                     127k      32316                  !presenceOf(copy_bus_parking:18_26)
                     128k      32364        F          presenceOf(copy_bus_parking:29_26)
                     129k      32304                  !presenceOf(copy_bus_parking:16_26)
                     130k      32313                  !presenceOf(copy_bus_parking:33_26)
                     131k      32219        F          presenceOf(copy_bus_parking:16_26)
                     132k      31696                  !presenceOf(copy_bus_parking:23_26)
                     133k      31696                  !presenceOf(copy_bus_parking:2_26)
                     134k      29915                  !presenceOf(copy_bus_parking:28_354)
                     135k      29787                  !presenceOf(copy_bus_parking:23_354)
                     136k      29790                  !presenceOf(copy_bus_parking:8_354)
                     137k      29787        F          presenceOf(copy_bus_parking:34_353)
                     138k      29787        F          presenceOf(copy_trips:11_353)
                     139k      29787        F          presenceOf(copy_bus_parking:14_353)
                     140k      29879                  !presenceOf(copy_bus_parking:14_359)
 ! Time = 197.83s, Average fail depth = 451, Memory usage = 1.2 GB
 !               Branches  Non-fixed            Branch decision
                     141k      29873                  !presenceOf(copy_bus_parking:1_359)
                     142k      29873                  !presenceOf(copy_trips:8_354)
                     143k      29861                  !presenceOf(copy_bus_parking:2_359)
                     144k      29861                  !presenceOf(copy_bus_parking:20_359)
                     145k      29867                  !presenceOf(copy_trips:4_354)
                     146k      29867                  !presenceOf(copy_trips:23_354)
                     147k      29867                  !presenceOf(copy_trips:32_354)
                     148k      29867                  !presenceOf(copy_trips:18_354)
                     149k      29882                   presenceOf(copy_bus_parking:26_353)
                     150k      29867                  !presenceOf(copy_bus_parking:0_359)
                     151k      29858                  !presenceOf(copy_trips:27_354)
                     152k      29858        F          presenceOf(copy_bus_parking:34_352)
                     153k      29879        F          presenceOf(copy_bus_parking:19_352)
                     154k      29879        F         !presenceOf(copy_bus_parking:23_359)
                     155k      29873                  !presenceOf(copy_trips:10_354)
                     156k      29870        F          presenceOf(copy_bus_parking:9_353)
                     157k      29858                  !presenceOf(copy_bus_parking:0_359)
                     158k      29858                  !presenceOf(copy_bus_parking:7_359)
                     159k      29873                  !presenceOf(copy_trips:7_354)
                     160k      29858                  !presenceOf(copy_trips:17_354)
 ! Time = 209.05s, Average fail depth = 456, Memory usage = 1.2 GB
 !               Branches  Non-fixed            Branch decision
                     161k      29858        F          presenceOf(copy_bus_parking:22_353)
                     162k      29858        F          presenceOf(copy_bus_parking:16_359)
                     163k      29876        F          presenceOf(copy_bus_parking:24_359)
                     164k      29879        F          presenceOf(copy_trips:31_354)
                     165k      29879        F          presenceOf(copy_bus_parking:24_359)
                     166k      29867        F          presenceOf(copy_bus_parking:16_353)
                     167k      29867                  !presenceOf(copy_trips:24_354)
                     168k      29873                  !presenceOf(copy_trips:14_354)
                     169k      29873        F          presenceOf(copy_bus_parking:22_353)
                     170k      29867        F          presenceOf(copy_bus_parking:36_353)
                     171k      29867                  !presenceOf(copy_trips:34_354)
                     172k      29867                  !presenceOf(copy_trips:26_354)
                     173k      29867                  !presenceOf(copy_bus_parking:35_359)
                     174k      29867        F          presenceOf(copy_bus_parking:29_352)
                     175k      29864                  !presenceOf(copy_trips:36_354)
                     176k      29864        F         !presenceOf(copy_trips:12_354)
                     177k      29870                  !presenceOf(copy_bus_parking:8_359)
                     178k      29870                  !presenceOf(copy_trips:21_354)
                     179k      29867                  !presenceOf(copy_bus_parking:24_359)
                     180k      29867                  !presenceOf(copy_trips:9_354)
 ! Time = 220.30s, Average fail depth = 460, Memory usage = 1.2 GB
 !               Branches  Non-fixed            Branch decision
                     181k      29870                  !presenceOf(copy_bus_parking:23_359)
                     182k      29867        F         !presenceOf(copy_bus_parking:26_359)
                     183k      29873                  !presenceOf(copy_bus_parking:4_359)
                     184k      29873                  !presenceOf(copy_bus_parking:39_359)
                     185k      29870                  !presenceOf(copy_bus_parking:37_359)
                     186k      29873                  !presenceOf(copy_bus_parking:6_359)
                     187k      29870                  !presenceOf(copy_bus_parking:24_359)
                     188k      29870                  !presenceOf(copy_bus_parking:15_359)
                     189k      29867                  !presenceOf(copy_trips:15_354)
                     190k      29867        F          presenceOf(copy_bus_parking:19_353)
                     191k      29781                   presenceOf(copy_trips:39_353)
                     192k      29781        F          presenceOf(copy_trips:4_353)
                     193k      29775                  !presenceOf(copy_trips:6_354)
                     194k      29784                   presenceOf(copy_lane_parking:3_254)
                     195k      20334        F          presenceOf(copy_bus_parking:27_48)
                     196k      20334        F          presenceOf(copy_bus_parking:16_48)
                     197k      20334        F          presenceOf(copy_bus_parking:3_48)
                     198k      20334                   presenceOf(copy_trips:12_241)
                     199k      29793        F          presenceOf(copy_trips:35_354)
                     200k      29960        F         !presenceOf(copy_trips:28_28)
 ! Time = 238.36s, Average fail depth = 464, Memory usage = 1.2 GB
 !               Branches  Non-fixed            Branch decision
                     201k      29787        F          presenceOf(copy_bus_parking:36_355)
                     202k      16355        F          presenceOf(copy_trips:13_240)
                     203k      16355                  !presenceOf(copy_trips:37_359)
                     204k      29775        F          presenceOf(copy_trips:20_38)
                     205k      31909        F          presenceOf(copy_trips:8_59)
                     206k      31899        F          presenceOf(copy_trips:8_59)
                     207k      31909                  !presenceOf(copy_bus_parking:9_27)
                     208k      31909                  !presenceOf(copy_bus_parking:33_16)
                     209k      31909                  !presenceOf(copy_trips:25_59)
                     210k      31909                  !presenceOf(copy_trips:1_28)
                     211k      31909        F         !presenceOf(copy_bus_parking:1_27)
                     212k      32116                  !presenceOf(copy_trips:7_59)
                     213k      32325                  !presenceOf(copy_trips:11_38)
                     214k      32325        F          presenceOf(copy_bus_parking:5_34)
                     215k      32552                  !presenceOf(copy_trips:14_23)
                     216k      31393                  !presenceOf(copy_trips:7_28)
                     217k      30534                   presenceOf(copy_bus_parking:37_120)
                     218k      16357                   presenceOf(copy_trips:11_248)
                     219k      16341        F          presenceOf(copy_trips:14_8)
                     220k      34371        F          presenceOf(copy_trips:0_25)
 ! Time = 268.50s, Average fail depth = 464, Memory usage = 1.2 GB
 !               Branches  Non-fixed            Branch decision
                     221k      37588        F          presenceOf(copy_trips:5_81)
                     222k      37607                  !presenceOf(copy_bus_parking:1_1)
                     223k      37603                  !presenceOf(copy_bus_parking:26_1)
                     224k      37637                   presenceOf(copy_lane_parking:5_23)
                     225k      20180                  !presenceOf(copy_bus_parking:20_48)
                     226k      20180                  !presenceOf(copy_trips:5_5)
                     227k      27576                  !presenceOf(copy_trips:4_49)
                     228k      27576        F          presenceOf(copy_bus_parking:9_4)
                     229k      27576        F          presenceOf(copy_bus_parking:15_4)
                     230k      27576        F          presenceOf(copy_bus_parking:19_4)
                     231k      27576        F          presenceOf(copy_bus_parking:22_3)
                     232k      27576        F          presenceOf(copy_bus_parking:29_4)
                     233k      27576        F          presenceOf(copy_bus_parking:19_4)
                     234k      27576        F         !presenceOf(copy_bus_parking:22_3)
                     235k      27576                  !presenceOf(copy_trips:30_49)
                     236k      27576                  !presenceOf(copy_bus_parking:17_4)
                     237k      27576        F         !presenceOf(copy_bus_parking:22_3)
                     238k      27576        F          presenceOf(copy_bus_parking:14_4)
                     239k      27576        F          presenceOf(copy_trips:20_49)
                     240k      27576        F          presenceOf(copy_bus_parking:4_4)
 ! Time = 287.25s, Average fail depth = 464, Memory usage = 1.2 GB
 !               Branches  Non-fixed            Branch decision
                     241k      27576        F          presenceOf(copy_bus_parking:22_3)
                     242k      27576                   presenceOf(copy_bus_parking:27_4)
                     243k      27576                   presenceOf(copy_bus_parking:34_4)
                     244k      27576        F          presenceOf(copy_bus_parking:15_4)
                     245k      27576        F          presenceOf(copy_bus_parking:3_4)
                     246k      27576                  !presenceOf(copy_bus_parking:20_4)
                     247k      27576                   presenceOf(copy_bus_parking:27_4)
                     248k      27576        F          presenceOf(copy_bus_parking:26_3)
                     249k      27576        F          presenceOf(copy_bus_parking:22_3)
                     250k      27576        F          presenceOf(copy_bus_parking:22_3)
                     251k      27576                  !presenceOf(copy_trips:3_5)
                     252k      27874        F         !presenceOf(copy_bus_parking:22_3)
                     253k      27576        F          presenceOf(copy_bus_parking:7_4)
                     254k      27576        F         !presenceOf(copy_bus_parking:22_3)
                     255k      27576        F          presenceOf(copy_bus_parking:9_4)
                     256k      27576        F          presenceOf(copy_bus_parking:9_4)
                     257k      27576        F          presenceOf(copy_bus_parking:20_4)
                     258k      27576        F          presenceOf(copy_bus_parking:20_4)
                     259k      27576        F         !presenceOf(copy_bus_parking:22_3)
                     260k      27576                   presenceOf(copy_bus_parking:30_4)
 ! Time = 305.66s, Average fail depth = 467, Memory usage = 1.2 GB
 !               Branches  Non-fixed            Branch decision
                     261k      27576                  !presenceOf(copy_trips:5_49)
                     262k      27576                   presenceOf(copy_bus_parking:37_4)
                     263k      27576                  !presenceOf(copy_bus_parking:21_4)
                     264k      27576                  !presenceOf(copy_bus_parking:14_4)
                     265k      27576        F          presenceOf(copy_bus_parking:14_4)
                     266k      27576                   presenceOf(copy_bus_parking:28_4)
                     267k      27576        F          presenceOf(copy_bus_parking:5_4)
                     268k      27576        F         !presenceOf(copy_trips:1_1)
                     269k      27576        F          presenceOf(copy_bus_parking:22_3)
                     270k      27576        F         !presenceOf(copy_bus_parking:22_3)
                     271k      27576                  !presenceOf(copy_bus_parking:14_4)
                     272k      27576                  !presenceOf(copy_trips:14_49)
                     273k      27576        F          presenceOf(copy_bus_parking:3_4)
                     274k      27576                  !presenceOf(copy_bus_parking:21_4)
                     275k      27576                  !presenceOf(copy_trips:29_49)
                     276k      27576                  !presenceOf(copy_bus_parking:6_4)
                     277k      27576                   presenceOf(copy_lane_parking:0_82)
                     278k      38425                   presenceOf(copy_lane_parking:6_97)
                     279k      31876                   presenceOf(copy_trips:39_151)
                     280k      18507                   presenceOf(copy_bus_parking:31_196)
 ! Time = 326.50s, Average fail depth = 469, Memory usage = 1.2 GB
 !               Branches  Non-fixed            Branch decision
                     281k      16447                   presenceOf(copy_bus_parking:19_194)
                     282k      16447                   presenceOf(copy_lane_parking:5_190)
                     283k      33448                   presenceOf(copy_lane_parking:4_26)
                     284k      36534                   presenceOf(copy_bus_parking:32_107)
                     285k      33460        F         !presenceOf(copy_bus_parking:23_3)
                     286k      31584        F          presenceOf(copy_trips:4_23)
                     287k      29793        F          presenceOf(copy_trips:19_353)
                     288k      29790                  !presenceOf(copy_bus_parking:23_359)
                     289k      29793                  !presenceOf(copy_bus_parking:26_359)
                     290k      29793                  !presenceOf(copy_bus_parking:1_359)
                     291k      19732                  !presenceOf(copy_trips:3_40)
                     292k      19732                  !presenceOf(copy_bus_parking:20_355)
                     293k      23943        F          presenceOf(copy_bus_parking:3_81)
                     294k      23901                  !presenceOf(copy_bus_parking:10_9)
                     295k      30751                  !presenceOf(copy_bus_parking:25_34)
                     296k      16453                  !presenceOf(copy_bus_parking:37_259)
                     297k      16450                  !presenceOf(copy_trips:0_30)
                     298k      32695                   presenceOf(copy_trips:17_74)
                     299k      28573                  !presenceOf(copy_trips:21_22)
                     300k      32148                   presenceOf(copy_trips:11_59)
 ! Time = 356.98s, Average fail depth = 468, Memory usage = 1.2 GB
 !               Branches  Non-fixed            Branch decision
                     301k      32099                  !presenceOf(copy_bus_parking:13_26)
                     302k      32142                  !presenceOf(copy_bus_parking:27_26)
                     303k      32099        F          presenceOf(copy_trips:4_59)
                     304k      32145                  !presenceOf(copy_bus_parking:37_26)
                     305k      32148                  !presenceOf(copy_bus_parking:7_26)
                     306k      32148                  !presenceOf(copy_bus_parking:37_26)
                     307k      32148        F          presenceOf(copy_trips:15_59)
                     308k      32148        F          presenceOf(copy_trips:37_59)
                     309k      32148                  !presenceOf(copy_bus_parking:2_26)
                     310k      32148        F          presenceOf(copy_bus_parking:6_27)
                     311k      32099        F          presenceOf(copy_bus_parking:21_27)
                     312k      32142                  !presenceOf(copy_bus_parking:29_26)
                     313k      32102                  !presenceOf(copy_trips:8_337)
                     314k      39575                  !presenceOf(copy_trips:0_337)
                     315k      39575        F          presenceOf(copy_bus_parking:1_284)
                     316k      39575        F          presenceOf(copy_bus_parking:30_276)
                     317k      29778        F          presenceOf(copy_bus_parking:38_355)
                     318k      29778                  !presenceOf(copy_bus_parking:21_354)
                     319k      29778        F          presenceOf(copy_bus_parking:7_354)
                     320k      29778        F          presenceOf(copy_bus_parking:34_355)
 ! Time = 393.04s, Average fail depth = 466, Memory usage = 1.2 GB
 !               Branches  Non-fixed            Branch decision
                     321k      29784                   presenceOf(copy_bus_parking:29_355)
                     322k      29781        F         !presenceOf(copy_bus_parking:11_359)
                     323k      29781                   presenceOf(copy_bus_parking:33_354)
                     324k      29781                   presenceOf(copy_bus_parking:29_355)
                     325k      29781        F         !presenceOf(copy_bus_parking:11_359)
                     326k      29781                   presenceOf(copy_trips:29_353)
                     327k      29781                   presenceOf(copy_trips:29_353)
                     328k      29781        F          presenceOf(copy_bus_parking:17_355)
                     329k      29781        F          presenceOf(copy_bus_parking:3_355)
                     330k      29781        F         !presenceOf(copy_trips:39_354)
                     331k      20073                  !presenceOf(copy_trips:0_35)
                     332k      20073                   presenceOf(copy_trips:36_341)
                     333k      29793        F          presenceOf(copy_trips:31_355)
                     334k      29793        F          presenceOf(copy_trips:22_355)
                     335k      29787        F         !presenceOf(copy_bus_parking:36_354)
                     336k      29796        F          presenceOf(copy_trips:5_354)
                     337k      16444                  !presenceOf(copy_bus_parking:32_259)
                     338k      16447        F          presenceOf(copy_bus_parking:25_354)
                     339k      29781                   presenceOf(copy_trips:28_176)
                     340k      23430                   presenceOf(copy_lane_parking:3_198)
 ! Time = 413.54s, Average fail depth = 467, Memory usage = 1.2 GB
 !               Branches  Non-fixed            Branch decision
                     341k      42756                   presenceOf(copy_lane_parking:1_128)
                     342k      30402        F          presenceOf(copy_bus_parking:34_357)
                     343k      29805                   presenceOf(copy_bus_parking:2_3)
                     344k      32531                  !presenceOf(copy_trips:27_23)
                     345k      16551                   presenceOf(copy_trips:27_248)
                     346k      16352        F          presenceOf(copy_bus_parking:25_240)
                     347k      16352        F          presenceOf(copy_bus_parking:31_240)
                     348k      16352        F          presenceOf(copy_bus_parking:38_240)
                     349k      16352                  !presenceOf(copy_trips:7_29)
                     350k      20976                  !presenceOf(copy_bus_parking:13_48)
                     351k      20976                  !presenceOf(copy_bus_parking:6_48)
                     352k      20254        F          presenceOf(copy_bus_parking:2_35)
                     353k      20254                  !presenceOf(copy_trips:10_51)
                     354k      20275        F          presenceOf(copy_bus_parking:2_35)
                     355k      20254        F          presenceOf(copy_bus_parking:11_35)
                     356k      20254        F          presenceOf(copy_bus_parking:18_35)
                     357k      20254        F          presenceOf(copy_bus_parking:1_35)
                     358k      20254        F          presenceOf(copy_bus_parking:6_35)
                     359k      20254        F          presenceOf(copy_bus_parking:1_35)
                     360k      20254        F          presenceOf(copy_bus_parking:37_35)
 ! Time = 437.96s, Average fail depth = 471, Memory usage = 1.2 GB
 !               Branches  Non-fixed            Branch decision
                     361k      20254        F          presenceOf(copy_bus_parking:16_35)
                     362k      20254        F          presenceOf(copy_bus_parking:37_35)
                     363k      20254        F          presenceOf(copy_trips:24_84)
                     364k      23571                   presenceOf(copy_bus_parking:26_317)
                     365k      16346                  !presenceOf(copy_trips:10_39)
                     366k      23146                   presenceOf(copy_trips:38_188)
                     367k       8038                   presenceOf(copy_trips:1_312)
 *                   367k  449.02s                   -
 ! ----------------------------------------------------------------------------
 ! Search completed, 1 solution found.
 ! ----------------------------------------------------------------------------
 ! Number of branches     : 367690
 ! Number of fails        : 150974
 ! Total memory usage     : 1.4 GB (1.3 GB CP Optimizer + 0.0 GB Concert)
 ! Time spent in solve    : 449.04s (443.81s engine + 5.23s extraction)
 ! Search speed (br. / s) : 828.5
 ! ----------------------------------------------------------------------------
